
--- Job Transportation Example.gms Start 09/19/25 20:23:42 51.1.0 2d039df5 WEX-WEI x86 64bit/MS Windows
--- Applying:
    C:\GAMS\51\gmsprmNT.txt
--- GAMS Parameters defined
    Input "C:\Users\spenc\OneDrive\Desktop\CEE 6410\GAMS\Transportation Example.gms"
    PageSize 0
    ScrDir "C:\Users\spenc\OneDrive\Desktop\CEE 6410\GAMS\225a\"
    SysDir C:\GAMS\51\
    LogOption 3
    AppendLog 1
    ErrMsg 1
    ErrorLog 99
    IDE 1
    LstTitleLeftAligned 1
Licensee: Course License                                 G250902+0003Ac-GEN
          Utah State University                                     DCE4709
          225a\gamslice.dat
          node:23457803 mem:16 cores:10 ipport:53622 uses:0@0 v:2          
          Course license for use within the course and related course work
          The expiration date of time-limited license is Dec 31, 2025
System information: 10 physical cores and 16 Gb physical memory detected
GAMS 51.1.0   Copyright (C) 1987-2025 GAMS Development. All rights reserved
--- Starting compilation
--- Transportation Example.gms(78) 3 Mb
--- Starting execution: elapsed 0:00:00.021
--- Generating LP model PRODUCTION
--- Transportation Example.gms(77) 4 Mb
---   4 rows  3 columns  9 non-zeroes
--- Range statistics (absolute non-zero finite values)
--- RHS       [min, max] : [ 1.200E+04, 4.000E+06] - Zero values observed as well
--- Bound     [min, max] : [        NA,        NA] - Zero values observed as well
--- Matrix    [min, max] : [ 1.000E+00, 7.000E+03]
--- Executing CPLEX (Solvelink=2): elapsed 0:00:00.110

IBM ILOG CPLEX   51.1.0 2d039df5 Sep 13, 2025          WEI x86 64bit/MS Window

*** This solver runs with a community license.
--- GMO setup time: 0.00s
--- GMO memory 0.50 Mb (peak 0.50 Mb)
--- Dictionary memory 0.00 Mb
--- Cplex 22.1.2.0 link memory 0.00 Mb (peak 0.00 Mb)
--- Starting Cplex

Version identifier: 22.1.2.0 | 2024-11-25 | 0edbb82fd
CPXPARAM_Advance                                 0
CPXPARAM_Simplex_Display                         2
CPXPARAM_MIP_Display                             4
CPXPARAM_MIP_Pool_Capacity                       0
CPXPARAM_MIP_Tolerances_AbsMIPGap                0
Tried aggregator 1 time.
LP Presolve eliminated 0 rows and 1 columns.
Reduced LP has 3 rows, 2 columns, and 6 nonzeros.
Presolve time = 0.00 sec. (0.00 ticks)

Iteration      Dual Objective            In Variable           Out Variable
     1 sI            0.000000            W(Minivans)MATERIALCONSTRAIN slack
     2        22333333.333333               W(Coups)MATERIALCONSTRAIN slack
     3        20000000.000000MATERIALCONSTRAIN slackMATERIALCONSTRAIN slack

--- LP status (1): optimal.
--- Cplex Time: 0.00sec (det. 0.01 ticks)


Optimal solution found
Objective:     20000000.000000

--- Reading solution for model PRODUCTION
*** Status: Normal completion
--- Job Transportation Example.gms Stop 09/19/25 20:23:43 elapsed 0:00:00.390
